problems/csplib-prob001/CarSequencing-models/compact/O0/minion/model-random71-solution000001.eprime-solution
language ESSENCE' 1.0

letting car_Function1D be
        [1, 2, 10, 3, 10, 1, 2, 10, 3, 10, 1, 2, 10, 3, 10, 2, 10, 2, 10, 5, 11, 10, 2, 10, 5, 11, 10, 2, 10, 10, 2, 10,
         4, 10, 10, 7, 10, 8, 10, 10, 7, 10, 9, 16, 10, 10, 7, 10, 10, 7, 10, 10, 7, 10, 10, 11, 10, 6, 13, 22, 11, 15,
         11, 17, 15, 11, 22, 11, 14, 22, 11, 15, 11, 17, 15, 11, 22, 11, 14, 22, 11, 15, 11, 17, 15, 11, 22, 11, 15, 17,
         11, 15, 11, 22, 15, 11, 17, 6, 27, 22, 11, 15, 11, 17, 15, 22, 25, 6, 27, 12, 15, 22, 25, 6, 27, 17, 6, 27, 22,
         15, 17, 22, 15, 22, 25, 16, 17, 22, 18, 22, 25, 16, 25, 21, 18, 22, 25, 16, 25, 21, 18, 22, 25, 18, 21, 25, 18,
         25, 25, 18, 21, 25, 18, 25, 26, 18, 21, 26, 18, 27, 27, 18, 21, 27, 18, 28, 28, 19, 21, 28, 19, 28, 28, 19, 21,
         28, 20, 28, 28, 20, 28, 21, 28, 20, 28, 28, 20, 28, 28, 20, 28, 28, 23, 28, 28, 24, 28, 28, 28, 28;
             int(1..200)]
