problems/csplib-prob001/CarSequencing-models/compact/O0/minion/model-random71-solution000001.solution
language Essence 1.3

letting car be
        function(1 --> 1, 2 --> 2, 3 --> 10, 4 --> 3, 5 --> 10, 6 --> 1, 7 --> 2, 8 --> 10, 9 --> 3, 10 --> 10,
                 11 --> 1, 12 --> 2, 13 --> 10, 14 --> 3, 15 --> 10, 16 --> 2, 17 --> 10, 18 --> 2, 19 --> 10, 20 --> 5,
                 21 --> 11, 22 --> 10, 23 --> 2, 24 --> 10, 25 --> 5, 26 --> 11, 27 --> 10, 28 --> 2, 29 --> 10,
                 30 --> 10, 31 --> 2, 32 --> 10, 33 --> 4, 34 --> 10, 35 --> 10, 36 --> 7, 37 --> 10, 38 --> 8,
                 39 --> 10, 40 --> 10, 41 --> 7, 42 --> 10, 43 --> 9, 44 --> 16, 45 --> 10, 46 --> 10, 47 --> 7,
                 48 --> 10, 49 --> 10, 50 --> 7, 51 --> 10, 52 --> 10, 53 --> 7, 54 --> 10, 55 --> 10, 56 --> 11,
                 57 --> 10, 58 --> 6, 59 --> 13, 60 --> 22, 61 --> 11, 62 --> 15, 63 --> 11, 64 --> 17, 65 --> 15,
                 66 --> 11, 67 --> 22, 68 --> 11, 69 --> 14, 70 --> 22, 71 --> 11, 72 --> 15, 73 --> 11, 74 --> 17,
                 75 --> 15, 76 --> 11, 77 --> 22, 78 --> 11, 79 --> 14, 80 --> 22, 81 --> 11, 82 --> 15, 83 --> 11,
                 84 --> 17, 85 --> 15, 86 --> 11, 87 --> 22, 88 --> 11, 89 --> 15, 90 --> 17, 91 --> 11, 92 --> 15,
                 93 --> 11, 94 --> 22, 95 --> 15, 96 --> 11, 97 --> 17, 98 --> 6, 99 --> 27, 100 --> 22, 101 --> 11,
                 102 --> 15, 103 --> 11, 104 --> 17, 105 --> 15, 106 --> 22, 107 --> 25, 108 --> 6, 109 --> 27,
                 110 --> 12, 111 --> 15, 112 --> 22, 113 --> 25, 114 --> 6, 115 --> 27, 116 --> 17, 117 --> 6,
                 118 --> 27, 119 --> 22, 120 --> 15, 121 --> 17, 122 --> 22, 123 --> 15, 124 --> 22, 125 --> 25,
                 126 --> 16, 127 --> 17, 128 --> 22, 129 --> 18, 130 --> 22, 131 --> 25, 132 --> 16, 133 --> 25,
                 134 --> 21, 135 --> 18, 136 --> 22, 137 --> 25, 138 --> 16, 139 --> 25, 140 --> 21, 141 --> 18,
                 142 --> 22, 143 --> 25, 144 --> 18, 145 --> 21, 146 --> 25, 147 --> 18, 148 --> 25, 149 --> 25,
                 150 --> 18, 151 --> 21, 152 --> 25, 153 --> 18, 154 --> 25, 155 --> 26, 156 --> 18, 157 --> 21,
                 158 --> 26, 159 --> 18, 160 --> 27, 161 --> 27, 162 --> 18, 163 --> 21, 164 --> 27, 165 --> 18,
                 166 --> 28, 167 --> 28, 168 --> 19, 169 --> 21, 170 --> 28, 171 --> 19, 172 --> 28, 173 --> 28,
                 174 --> 19, 175 --> 21, 176 --> 28, 177 --> 20, 178 --> 28, 179 --> 28, 180 --> 20, 181 --> 28,
                 182 --> 21, 183 --> 28, 184 --> 20, 185 --> 28, 186 --> 28, 187 --> 20, 188 --> 28, 189 --> 28,
                 190 --> 20, 191 --> 28, 192 --> 28, 193 --> 23, 194 --> 28, 195 --> 28, 196 --> 24, 197 --> 28,
                 198 --> 28, 199 --> 28, 200 --> 28)
